benchmarks_CP/INST_49x49/50/inst49x49_50_42.dzn
S=7;
start=[|
49,	-1,	42,	-1,	39,	18,	4,	-1,	3,	23,	22,	-1,	-1,	6,	-1,	2,	-1,	-1,	20,	-1,	-1,	-1,	-1,	-1,	26,	44,	-1,	8,	33,	21,	-1,	10,	-1,	-1,	47,	-1,	34,	27,	-1,	16,	5,	41,	45,	-1,	-1,	-1,	28,	-1,	12|
-1,	-1,	25,	21,	14,	-1,	8,	13,	48,	46,	-1,	7,	-1,	12,	-1,	26,	-1,	36,	-1,	23,	-1,	19,	41,	24,	34,	38,	33,	-1,	37,	45,	20,	-1,	16,	-1,	-1,	9,	40,	2,	-1,	10,	-1,	3,	44,	22,	-1,	-1,	-1,	-1,	4|
-1,	23,	24,	48,	26,	12,	10,	32,	-1,	21,	44,	38,	-1,	-1,	-1,	-1,	-1,	-1,	-1,	-1,	-1,	11,	-1,	47,	-1,	22,	-1,	49,	4,	1,	-1,	36,	41,	-1,	30,	-1,	-1,	20,	45,	-1,	37,	17,	-1,	-1,	19,	-1,	3,	-1,	13|
-1,	-1,	41,	-1,	31,	-1,	37,	-1,	-1,	4,	17,	-1,	-1,	15,	-1,	-1,	-1,	-1,	-1,	34,	5,	-1,	-1,	45,	-1,	35,	-1,	-1,	-1,	-1,	-1,	-1,	-1,	13,	26,	14,	25,	12,	-1,	19,	44,	36,	-1,	-1,	-1,	47,	-1,	-1,	18|
-1,	-1,	19,	43,	-1,	-1,	-1,	-1,	-1,	30,	-1,	-1,	-1,	-1,	3,	45,	42,	-1,	-1,	-1,	13,	-1,	36,	-1,	14,	32,	27,	-1,	-1,	2,	-1,	34,	28,	11,	15,	6,	-1,	-1,	4,	48,	-1,	24,	46,	-1,	-1,	25,	23,	33,	39|
13,	35,	36,	-1,	-1,	34,	5,	27,	-1,	-1,	-1,	-1,	-1,	49,	17,	16,	-1,	-1,	-1,	-1,	22,	46,	39,	-1,	28,	37,	-1,	-1,	19,	23,	-1,	42,	9,	-1,	24,	38,	-1,	47,	21,	11,	-1,	-1,	20,	29,	-1,	-1,	-1,	-1,	41|
-1,	-1,	-1,	33,	-1,	-1,	28,	39,	-1,	-1,	16,	-1,	24,	-1,	44,	-1,	37,	48,	-1,	-1,	12,	31,	4,	-1,	-1,	-1,	-1,	-1,	6,	-1,	27,	-1,	18,	-1,	-1,	13,	-1,	7,	-1,	-1,	-1,	-1,	8,	17,	40,	-1,	-1,	-1,	34|
42,	22,	9,	-1,	33,	-1,	26,	40,	-1,	-1,	23,	-1,	7,	10,	30,	21,	2,	-1,	-1,	-1,	-1,	-1,	8,	-1,	38,	29,	-1,	14,	25,	27,	-1,	15,	-1,	39,	-1,	34,	11,	-1,	43,	47,	36,	20,	18,	-1,	24,	31,	-1,	35,	16|
-1,	-1,	18,	-1,	-1,	-1,	-1,	16,	19,	37,	-1,	-1,	-1,	-1,	-1,	-1,	-1,	-1,	-1,	-1,	-1,	12,	1,	-1,	24,	33,	28,	48,	36,	11,	22,	-1,	-1,	-1,	-1,	-1,	31,	-1,	-1,	39,	-1,	-1,	17,	13,	9,	15,	-1,	3,	8|
40,	-1,	-1,	-1,	41,	-1,	21,	-1,	39,	15,	42,	-1,	-1,	1,	7,	33,	8,	-1,	34,	-1,	36,	-1,	-1,	-1,	5,	9,	-1,	-1,	-1,	6,	-1,	17,	-1,	49,	35,	-1,	45,	-1,	-1,	-1,	-1,	-1,	19,	-1,	48,	-1,	29,	44,	-1|
-1,	-1,	45,	35,	-1,	-1,	46,	-1,	22,	20,	-1,	9,	32,	36,	14,	-1,	27,	-1,	-1,	18,	-1,	23,	-1,	2,	-1,	-1,	3,	13,	-1,	43,	48,	28,	40,	-1,	31,	12,	29,	-1,	44,	-1,	19,	-1,	-1,	34,	38,	26,	7,	-1,	-1|
-1,	19,	30,	-1,	43,	-1,	7,	45,	-1,	11,	-1,	8,	-1,	27,	23,	-1,	-1,	-1,	40,	31,	-1,	42,	-1,	-1,	46,	-1,	-1,	18,	-1,	-1,	26,	44,	47,	34,	-1,	-1,	-1,	-1,	-1,	17,	3,	-1,	-1,	-1,	36,	1,	12,	-1,	28|
-1,	-1,	1,	-1,	15,	17,	23,	-1,	-1,	5,	31,	-1,	13,	25,	37,	28,	3,	39,	42,	-1,	-1,	45,	40,	-1,	44,	-1,	-1,	-1,	32,	9,	-1,	-1,	14,	16,	-1,	-1,	-1,	-1,	-1,	-1,	-1,	18,	-1,	10,	4,	30,	-1,	2,	49|
-1,	-1,	13,	14,	-1,	-1,	-1,	-1,	26,	-1,	21,	34,	17,	-1,	-1,	25,	12,	-1,	-1,	-1,	29,	36,	-1,	49,	-1,	-1,	35,	6,	1,	-1,	8,	-1,	46,	19,	10,	-1,	9,	28,	24,	4,	-1,	32,	40,	-1,	27,	11,	-1,	-1,	42|
41,	-1,	-1,	-1,	-1,	23,	9,	-1,	40,	10,	-1,	-1,	-1,	-1,	-1,	-1,	13,	-1,	2,	44,	47,	16,	-1,	-1,	-1,	20,	45,	-1,	39,	-1,	11,	26,	21,	27,	38,	30,	-1,	-1,	8,	18,	28,	48,	-1,	31,	42,	-1,	14,	-1,	-1|
33,	10,	-1,	20,	-1,	-1,	-1,	7,	-1,	14,	45,	-1,	8,	31,	40,	4,	30,	15,	19,	26,	-1,	-1,	5,	-1,	18,	-1,	36,	27,	13,	34,	46,	37,	-1,	-1,	-1,	41,	44,	-1,	47,	49,	-1,	42,	29,	25,	-1,	-1,	9,	28,	-1|
-1,	31,	28,	-1,	22,	47,	19,	-1,	-1,	-1,	-1,	15,	30,	-1,	29,	42,	-1,	-1,	-1,	7,	-1,	44,	25,	-1,	-1,	-1,	-1,	40,	-1,	-1,	-1,	-1,	-1,	-1,	48,	-1,	16,	10,	12,	-1,	-1,	33,	37,	-1,	18,	-1,	-1,	-1,	-1|
-1,	39,	44,	25,	12,	14,	15,	41,	-1,	28,	27,	-1,	-1,	-1,	36,	-1,	11,	18,	-1,	-1,	32,	22,	31,	-1,	33,	-1,	6,	29,	-1,	-1,	49,	4,	-1,	-1,	9,	26,	-1,	45,	3,	-1,	-1,	-1,	48,	-1,	-1,	13,	-1,	47,	30|
11,	-1,	-1,	18,	-1,	13,	-1,	49,	32,	22,	-1,	-1,	36,	-1,	-1,	-1,	46,	-1,	-1,	28,	-1,	43,	-1,	37,	-1,	-1,	47,	-1,	-1,	5,	-1,	33,	31,	45,	20,	4,	-1,	-1,	-1,	-1,	-1,	19,	-1,	35,	7,	-1,	16,	24,	-1|
-1,	2,	-1,	-1,	5,	-1,	-1,	23,	42,	-1,	19,	21,	29,	-1,	31,	-1,	34,	-1,	22,	-1,	-1,	10,	-1,	-1,	-1,	11,	-1,	41,	28,	18,	-1,	-1,	-1,	14,	25,	-1,	24,	43,	-1,	-1,	13,	-1,	-1,	-1,	45,	-1,	39,	-1,	1|
-1,	17,	34,	30,	-1,	-1,	36,	44,	5,	-1,	-1,	-1,	20,	18,	45,	9,	-1,	8,	24,	-1,	14,	39,	-1,	-1,	3,	13,	-1,	42,	43,	19,	29,	35,	-1,	15,	-1,	-1,	27,	-1,	-1,	22,	-1,	-1,	21,	-1,	-1,	46,	-1,	49,	-1|
-1,	-1,	-1,	-1,	2,	-1,	-1,	-1,	-1,	-1,	-1,	-1,	-1,	21,	18,	-1,	22,	-1,	-1,	-1,	-1,	-1,	-1,	-1,	25,	-1,	-1,	5,	24,	-1,	40,	-1,	-1,	-1,	11,	-1,	4,	-1,	38,	-1,	12,	-1,	47,	36,	-1,	-1,	-1,	46,	-1|
1,	28,	-1,	-1,	-1,	48,	-1,	42,	-1,	-1,	47,	-1,	-1,	16,	-1,	-1,	-1,	-1,	7,	2,	3,	-1,	30,	35,	-1,	-1,	-1,	10,	-1,	-1,	-1,	-1,	13,	-1,	-1,	-1,	-1,	-1,	18,	43,	11,	-1,	23,	-1,	12,	34,	41,	22,	37|
-1,	44,	21,	-1,	-1,	-1,	-1,	46,	28,	27,	-1,	5,	-1,	26,	15,	34,	17,	-1,	32,	39,	23,	-1,	37,	-1,	-1,	31,	2,	11,	42,	16,	-1,	-1,	-1,	1,	-1,	3,	-1,	-1,	9,	-1,	48,	-1,	49,	30,	14,	-1,	-1,	40,	35|
38,	-1,	31,	29,	-1,	41,	12,	-1,	-1,	-1,	-1,	-1,	10,	13,	-1,	-1,	-1,	-1,	37,	-1,	-1,	34,	-1,	14,	45,	-1,	42,	22,	-1,	-1,	-1,	9,	27,	47,	4,	23,	-1,	40,	-1,	-1,	2,	46,	24,	5,	33,	21,	19,	-1,	20|
4,	-1,	46,	11,	19,	-1,	43,	34,	33,	-1,	-1,	41,	6,	24,	-1,	-1,	-1,	-1,	-1,	21,	-1,	-1,	-1,	48,	-1,	-1,	-1,	-1,	30,	-1,	-1,	7,	-1,	22,	-1,	-1,	49,	-1,	-1,	-1,	-1,	-1,	-1,	-1,	31,	-1,	8,	-1,	-1|
5,	-1,	-1,	-1,	40,	6,	-1,	-1,	23,	-1,	20,	18,	-1,	39,	-1,	-1,	-1,	43,	-1,	-1,	-1,	7,	-1,	44,	-1,	16,	-1,	-1,	-1,	14,	37,	-1,	8,	31,	2,	29,	-1,	-1,	34,	30,	33,	-1,	15,	45,	-1,	-1,	27,	-1,	-1|
45,	14,	-1,	39,	9,	-1,	49,	-1,	31,	-1,	-1,	-1,	-1,	17,	-1,	-1,	-1,	-1,	-1,	48,	-1,	-1,	46,	-1,	-1,	-1,	29,	-1,	12,	3,	33,	19,	-1,	-1,	-1,	-1,	-1,	-1,	16,	-1,	-1,	-1,	2,	-1,	-1,	44,	-1,	18,	-1|
19,	-1,	32,	-1,	-1,	40,	2,	-1,	15,	-1,	-1,	-1,	-1,	-1,	-1,	-1,	-1,	-1,	31,	-1,	-1,	49,	13,	-1,	-1,	21,	-1,	-1,	-1,	-1,	-1,	27,	-1,	38,	-1,	25,	47,	-1,	-1,	-1,	26,	11,	35,	23,	-1,	29,	-1,	-1,	24|
-1,	21,	-1,	1,	-1,	43,	-1,	36,	17,	24,	-1,	46,	26,	-1,	-1,	29,	39,	-1,	-1,	-1,	16,	33,	19,	-1,	-1,	2,	-1,	15,	-1,	-1,	-1,	-1,	4,	37,	14,	20,	28,	-1,	-1,	-1,	-1,	13,	-1,	7,	-1,	-1,	44,	9,	-1|
28,	4,	17,	41,	-1,	24,	-1,	-1,	-1,	44,	-1,	-1,	-1,	29,	-1,	-1,	7,	26,	-1,	35,	-1,	18,	-1,	22,	-1,	5,	-1,	-1,	16,	-1,	10,	-1,	39,	9,	-1,	-1,	-1,	-1,	30,	46,	27,	2,	32,	40,	3,	20,	25,	-1,	-1|
-1,	7,	-1,	38,	23,	-1,	-1,	-1,	9,	19,	32,	27,	-1,	20,	49,	47,	-1,	-1,	-1,	46,	44,	29,	-1,	-1,	35,	48,	-1,	-1,	-1,	17,	31,	41,	-1,	-1,	-1,	-1,	42,	16,	-1,	24,	-1,	-1,	11,	37,	-1,	-1,	-1,	-1,	2|
-1,	-1,	-1,	34,	35,	33,	-1,	-1,	-1,	-1,	-1,	12,	1,	37,	21,	-1,	-1,	-1,	38,	3,	-1,	-1,	17,	-1,	6,	46,	-1,	45,	40,	20,	-1,	-1,	-1,	-1,	-1,	44,	10,	9,	-1,	29,	15,	-1,	-1,	-1,	-1,	-1,	-1,	41,	36|
-1,	15,	37,	-1,	49,	9,	-1,	43,	8,	25,	2,	-1,	-1,	23,	20,	-1,	41,	10,	-1,	5,	24,	-1,	-1,	12,	-1,	-1,	32,	-1,	34,	-1,	-1,	30,	11,	28,	46,	1,	-1,	-1,	33,	3,	-1,	-1,	-1,	14,	17,	-1,	48,	13,	21|
20,	-1,	27,	-1,	-1,	-1,	44,	-1,	14,	13,	3,	-1,	49,	-1,	-1,	-1,	40,	33,	-1,	-1,	37,	-1,	7,	-1,	8,	-1,	43,	31,	2,	32,	-1,	-1,	35,	-1,	-1,	-1,	48,	-1,	17,	6,	45,	-1,	34,	42,	-1,	22,	10,	12,	26|
25,	6,	48,	2,	10,	-1,	42,	9,	-1,	-1,	-1,	3,	39,	-1,	46,	8,	29,	-1,	-1,	-1,	-1,	17,	-1,	31,	-1,	45,	-1,	44,	-1,	35,	34,	-1,	-1,	-1,	-1,	49,	-1,	-1,	1,	7,	20,	-1,	-1,	-1,	-1,	33,	24,	-1,	23|
-1,	43,	-1,	-1,	-1,	46,	-1,	19,	27,	49,	-1,	42,	-1,	-1,	-1,	-1,	-1,	5,	47,	22,	-1,	-1,	35,	-1,	9,	23,	-1,	33,	-1,	-1,	41,	32,	-1,	-1,	-1,	-1,	-1,	13,	-1,	45,	24,	-1,	38,	-1,	-1,	-1,	-1,	31,	3|
21,	-1,	20,	27,	-1,	8,	13,	22,	4,	48,	-1,	6,	43,	30,	28,	-1,	14,	-1,	-1,	-1,	-1,	-1,	-1,	-1,	15,	39,	7,	-1,	29,	46,	2,	11,	24,	-1,	23,	-1,	-1,	44,	-1,	31,	-1,	-1,	-1,	-1,	-1,	41,	42,	-1,	5|
30,	16,	-1,	-1,	34,	49,	-1,	-1,	-1,	31,	33,	-1,	23,	-1,	42,	-1,	6,	-1,	-1,	-1,	-1,	-1,	48,	-1,	-1,	-1,	21,	20,	8,	-1,	-1,	1,	19,	-1,	-1,	43,	12,	4,	-1,	-1,	10,	22,	-1,	28,	-1,	-1,	18,	27,	29|
44,	-1,	-1,	-1,	-1,	-1,	11,	-1,	13,	35,	46,	2,	-1,	45,	-1,	-1,	-1,	34,	-1,	9,	-1,	5,	22,	-1,	10,	-1,	8,	30,	38,	-1,	39,	-1,	-1,	4,	-1,	-1,	-1,	-1,	-1,	21,	18,	29,	-1,	6,	49,	14,	15,	25,	-1|
-1,	-1,	-1,	-1,	32,	5,	38,	29,	16,	34,	15,	-1,	18,	-1,	10,	-1,	21,	-1,	-1,	-1,	-1,	3,	-1,	28,	-1,	24,	11,	1,	-1,	13,	14,	-1,	-1,	44,	45,	-1,	35,	25,	-1,	-1,	17,	9,	-1,	-1,	46,	12,	43,	-1,	22|
17,	33,	-1,	-1,	45,	22,	-1,	-1,	37,	12,	24,	-1,	11,	-1,	-1,	23,	-1,	-1,	-1,	-1,	-1,	-1,	-1,	6,	-1,	-1,	13,	19,	47,	-1,	-1,	43,	-1,	3,	27,	8,	46,	-1,	-1,	32,	-1,	28,	4,	-1,	20,	7,	-1,	-1,	-1|
-1,	41,	16,	-1,	4,	35,	6,	10,	24,	29,	-1,	32,	27,	-1,	22,	-1,	-1,	-1,	36,	42,	34,	8,	-1,	25,	20,	-1,	-1,	46,	-1,	-1,	28,	3,	15,	-1,	-1,	47,	39,	-1,	-1,	38,	-1,	-1,	-1,	9,	-1,	-1,	-1,	45,	-1|
-1,	-1,	-1,	42,	-1,	-1,	-1,	33,	34,	-1,	25,	-1,	47,	-1,	-1,	46,	19,	31,	45,	-1,	-1,	21,	-1,	-1,	48,	28,	-1,	43,	-1,	-1,	-1,	-1,	-1,	-1,	-1,	-1,	-1,	3,	49,	44,	-1,	-1,	27,	12,	30,	40,	-1,	-1,	-1|
-1,	12,	49,	-1,	-1,	19,	34,	-1,	-1,	42,	26,	22,	-1,	-1,	8,	35,	10,	-1,	-1,	-1,	-1,	-1,	-1,	-1,	-1,	47,	-1,	38,	-1,	-1,	-1,	23,	29,	30,	40,	-1,	20,	6,	37,	-1,	1,	31,	-1,	21,	-1,	-1,	36,	48,	14|
-1,	-1,	-1,	-1,	-1,	-1,	32,	-1,	-1,	1,	9,	-1,	-1,	8,	-1,	-1,	5,	23,	-1,	-1,	25,	37,	11,	36,	-1,	49,	-1,	-1,	26,	47,	-1,	18,	43,	-1,	22,	17,	2,	14,	-1,	-1,	-1,	12,	-1,	-1,	-1,	35,	34,	-1,	38|
15,	48,	-1,	-1,	11,	1,	27,	-1,	45,	18,	-1,	30,	-1,	38,	-1,	-1,	-1,	16,	-1,	-1,	-1,	6,	-1,	-1,	-1,	-1,	9,	24,	-1,	-1,	-1,	-1,	34,	46,	8,	28,	-1,	-1,	42,	36,	-1,	43,	-1,	26,	41,	-1,	-1,	23,	-1|
9,	46,	-1,	8,	-1,	36,	47,	31,	20,	-1,	4,	28,	-1,	-1,	-1,	43,	44,	-1,	49,	12,	-1,	35,	33,	5,	22,	15,	-1,	-1,	27,	-1,	45,	39,	-1,	-1,	-1,	-1,	23,	24,	-1,	34,	32,	-1,	3,	-1,	29,	2,	-1,	-1,	17|
37,	-1,	2,	26,	30,	21,	-1,	11,	36,	-1,	-1,	-1,	15,	35,	-1,	-1,	48,	-1,	14,	-1,	-1,	13,	34,	42,	-1,	-1,	1,	-1,	20,	24,	-1,	38,	-1,	17,	49,	-1,	22,	29,	19,	-1,	-1,	45,	28,	44,	-1,	10,	32,	16,	-1|];
