sudoku-ls/benchmarks_LEQ/INST_49x49/50/inst49x49_50_42.txt
7
1
-1	-1	42	9	39	18	4	-1	3	23	22	31	35	-1	38	-1	24	-1	20	1	-1	40	43	-1	-1	44	-1	-1	33	-1	-1	10	48	-1	-1	-1	34	27	-1	16	5	41	45	11	37	-1	-1	7	12
-1	-1	-1	-1	-1	-1	-1	13	-1	46	11	-1	-1	-1	47	-1	18	36	43	-1	-1	-1	-1	-1	-1	-1	33	-1	-1	-1	-1	-1	-1	-1	-1	-1	-1	-1	29	10	42	3	44	22	-1	5	-1	6	4
-1	-1	24	-1	-1	12	-1	32	29	21	-1	-1	2	-1	-1	31	-1	-1	25	40	-1	-1	6	-1	-1	-1	5	49	4	1	43	-1	41	-1	-1	39	-1	20	-1	33	-1	-1	14	-1	-1	-1	-1	42	13
-1	-1	41	-1	-1	16	37	8	-1	-1	-1	20	9	15	11	-1	-1	27	-1	-1	5	30	29	-1	42	35	-1	-1	46	-1	-1	22	49	13	-1	14	25	-1	28	-1	44	-1	-1	-1	-1	-1	-1	-1	-1
29	-1	19	43	17	20	40	26	47	30	-1	37	-1	41	-1	-1	-1	-1	8	-1	-1	9	36	-1	14	32	27	-1	44	2	7	-1	-1	-1	-1	-1	-1	31	-1	48	-1	24	-1	49	-1	-1	23	33	-1
13	35	-1	7	-1	34	5	27	1	-1	40	14	-1	-1	-1	-1	32	-1	-1	-1	-1	-1	-1	18	-1	37	-1	-1	19	23	-1	-1	-1	12	24	-1	-1	-1	-1	-1	8	-1	20	29	2	48	-1	-1	41
22	3	-1	33	47	45	-1	-1	-1	36	-1	-1	-1	-1	-1	-1	37	-1	46	-1	-1	-1	4	1	21	25	-1	2	6	-1	-1	14	-1	-1	5	-1	-1	-1	-1	23	49	-1	-1	17	40	9	26	-1	34
-1	-1	-1	-1	-1	44	26	-1	12	-1	23	-1	7	10	30	-1	2	46	5	-1	48	32	-1	17	38	-1	19	-1	25	27	-1	-1	37	39	3	34	-1	-1	-1	-1	-1	20	18	-1	24	-1	-1	35	-1
-1	-1	-1	4	-1	38	29	16	-1	-1	43	-1	-1	-1	-1	-1	45	-1	26	-1	6	12	1	30	-1	33	28	-1	-1	-1	-1	5	-1	-1	-1	-1	31	-1	-1	39	41	-1	17	-1	9	15	-1	-1	8
-1	32	47	-1	41	31	-1	28	-1	15	-1	4	-1	-1	-1	-1	8	-1	34	13	36	-1	27	11	5	-1	-1	-1	-1	6	-1	17	38	-1	35	10	45	-1	-1	26	-1	16	-1	-1	-1	-1	29	44	43
-1	-1	-1	-1	6	11	-1	24	22	-1	30	-1	-1	-1	-1	17	-1	47	16	18	-1	23	-1	2	-1	-1	3	-1	-1	43	-1	-1	-1	42	31	-1	29	-1	-1	37	19	-1	-1	-1	38	26	-1	5	-1
-1	-1	30	-1	-1	-1	-1	45	-1	11	-1	8	48	27	-1	15	9	-1	-1	-1	20	42	16	41	-1	-1	-1	18	-1	4	26	-1	47	34	33	-1	5	-1	13	-1	-1	-1	6	32	36	-1	12	-1	-1
24	8	-1	36	-1	-1	-1	38	-1	-1	31	-1	-1	-1	37	-1	-1	39	-1	-1	11	-1	40	-1	44	-1	-1	47	-1	-1	-1	20	-1	-1	-1	-1	-1	-1	7	-1	-1	-1	22	-1	4	30	-1	2	-1
16	5	13	14	-1	2	-1	-1	-1	-1	21	34	17	47	-1	25	-1	38	-1	-1	29	36	-1	49	-1	-1	35	6	1	-1	-1	45	46	19	-1	22	-1	28	-1	-1	-1	-1	40	-1	-1	11	20	37	-1
-1	-1	43	-1	7	-1	9	37	-1	-1	-1	-1	-1	33	-1	-1	-1	1	-1	-1	-1	16	24	-1	17	20	45	-1	-1	-1	11	26	-1	27	38	30	-1	-1	8	-1	-1	-1	36	-1	-1	32	-1	-1	19
33	-1	6	-1	21	-1	-1	-1	35	14	-1	17	-1	31	40	4	-1	-1	-1	-1	-1	-1	5	23	-1	12	36	-1	-1	34	-1	37	1	-1	16	-1	-1	-1	-1	-1	-1	42	29	25	-1	-1	9	28	11
26	31	-1	45	-1	-1	19	-1	11	-1	13	-1	-1	-1	-1	42	35	20	23	7	27	-1	25	-1	-1	14	-1	-1	17	-1	-1	24	3	-1	-1	36	-1	10	-1	1	-1	33	-1	43	-1	-1	5	4	6
-1	39	-1	25	12	-1	-1	41	-1	-1	-1	-1	34	43	-1	38	11	18	17	-1	-1	-1	31	-1	33	1	-1	-1	-1	-1	-1	4	-1	40	-1	-1	37	45	-1	-1	21	-1	-1	20	-1	13	2	47	-1
11	-1	-1	-1	-1	13	-1	49	-1	-1	-1	-1	36	-1	-1	-1	46	12	-1	-1	10	-1	9	-1	2	8	-1	-1	23	-1	-1	33	-1	-1	20	4	-1	17	-1	-1	29	-1	41	-1	-1	27	16	24	44
27	2	-1	-1	5	-1	35	-1	42	16	19	-1	-1	48	31	49	-1	-1	-1	37	-1	-1	32	38	30	11	-1	41	-1	18	36	47	44	-1	25	7	24	-1	20	-1	-1	40	-1	-1	45	8	-1	17	-1
-1	17	34	-1	16	-1	36	-1	-1	47	38	-1	20	-1	45	9	-1	8	-1	-1	-1	39	28	7	3	-1	4	-1	43	-1	29	35	6	15	-1	2	27	32	-1	-1	-1	-1	21	-1	26	46	40	49	-1
35	-1	3	23	-1	27	16	15	49	-1	48	-1	45	-1	-1	19	22	-1	-1	14	-1	1	-1	-1	25	-1	-1	-1	24	-1	40	-1	-1	10	-1	31	4	-1	38	-1	-1	44	-1	36	-1	28	-1	46	-1
-1	-1	-1	32	20	48	-1	42	44	9	-1	-1	19	16	27	6	31	29	-1	-1	-1	24	-1	-1	4	-1	-1	-1	-1	-1	21	-1	-1	25	-1	5	15	26	-1	43	11	14	-1	38	12	-1	41	22	-1
18	44	-1	10	24	-1	22	-1	-1	27	36	5	-1	26	15	-1	17	45	32	-1	23	-1	-1	-1	-1	31	-1	-1	-1	-1	38	29	-1	-1	-1	3	-1	8	9	25	-1	6	49	-1	14	43	4	40	35
-1	25	31	-1	-1	41	12	1	30	-1	-1	43	-1	-1	-1	-1	49	-1	-1	-1	-1	-1	-1	14	-1	-1	42	-1	-1	48	18	9	-1	-1	-1	-1	-1	40	-1	-1	2	46	24	5	33	21	-1	-1	20
4	37	46	-1	19	-1	-1	34	33	2	-1	-1	-1	24	-1	20	-1	-1	-1	-1	26	15	-1	-1	-1	18	-1	-1	30	-1	-1	7	5	22	17	-1	-1	-1	-1	35	-1	-1	16	3	31	39	-1	29	-1
5	13	26	47	-1	-1	-1	-1	23	3	20	-1	25	39	-1	36	-1	-1	-1	24	46	7	-1	44	19	-1	41	21	-1	-1	-1	-1	-1	31	2	-1	32	-1	-1	30	-1	-1	-1	45	10	-1	-1	-1	48
45	14	15	39	9	-1	-1	35	-1	38	-1	11	22	-1	-1	-1	-1	42	-1	-1	-1	-1	-1	-1	36	27	-1	-1	12	-1	-1	19	23	43	-1	-1	-1	41	16	-1	-1	-1	2	-1	32	-1	6	18	25
19	18	-1	3	8	-1	2	48	15	-1	10	45	-1	4	-1	22	-1	30	31	-1	17	-1	13	-1	-1	-1	-1	-1	5	-1	1	-1	7	38	-1	25	-1	-1	14	-1	26	-1	35	23	-1	-1	-1	39	-1
6	-1	10	-1	-1	43	25	-1	17	-1	-1	-1	26	-1	-1	-1	39	32	12	45	16	33	-1	3	11	2	38	-1	-1	-1	47	8	4	-1	14	-1	28	23	31	41	40	-1	-1	-1	5	-1	-1	-1	-1
-1	-1	17	-1	-1	24	48	-1	21	44	-1	33	31	-1	-1	14	7	-1	11	35	42	18	-1	-1	-1	5	23	-1	-1	-1	10	-1	39	-1	43	-1	8	49	30	-1	27	-1	-1	-1	3	20	25	38	45
-1	7	-1	-1	-1	-1	-1	30	-1	19	32	-1	40	20	-1	47	-1	13	-1	-1	-1	-1	-1	34	35	48	-1	28	-1	-1	-1	-1	-1	36	-1	21	42	-1	22	-1	-1	-1	11	37	8	6	-1	1	-1
-1	-1	39	-1	-1	33	-1	-1	-1	-1	-1	-1	1	-1	-1	-1	23	2	38	-1	8	-1	17	-1	-1	46	24	45	40	-1	42	25	22	-1	13	44	10	9	-1	-1	15	4	43	47	-1	19	-1	41	-1
47	15	37	22	-1	9	45	-1	-1	25	2	16	38	-1	-1	18	41	10	-1	5	-1	-1	44	12	-1	-1	-1	-1	34	29	6	-1	-1	28	46	-1	-1	-1	33	3	35	7	-1	14	-1	4	-1	-1	21
20	36	-1	-1	46	-1	44	-1	14	-1	3	-1	49	11	-1	-1	-1	33	-1	25	37	41	-1	4	-1	30	43	31	2	-1	-1	-1	-1	24	19	18	48	5	-1	-1	45	-1	34	-1	15	-1	10	12	26
25	6	-1	-1	-1	-1	-1	9	38	26	-1	-1	-1	-1	-1	8	29	-1	30	-1	15	-1	-1	31	43	-1	-1	-1	-1	-1	34	-1	12	-1	28	49	-1	-1	1	7	20	-1	-1	-1	-1	33	-1	-1	-1
-1	43	14	40	1	46	-1	-1	27	49	8	42	21	-1	25	44	-1	-1	47	-1	-1	4	35	-1	-1	23	12	33	10	-1	-1	32	26	20	6	-1	30	13	-1	-1	-1	34	-1	2	11	17	-1	31	3
-1	-1	-1	27	-1	-1	13	-1	-1	-1	-1	6	43	-1	28	12	14	17	-1	-1	45	-1	-1	32	15	-1	7	37	29	-1	2	-1	-1	-1	23	-1	-1	44	36	-1	16	-1	26	-1	34	41	42	10	-1
30	-1	35	-1	34	-1	39	-1	-1	31	33	36	23	40	42	-1	6	-1	13	11	-1	2	-1	46	47	41	21	20	-1	7	-1	-1	19	5	37	43	12	4	-1	14	-1	22	9	28	-1	-1	-1	27	29
-1	-1	12	19	-1	-1	11	20	-1	35	-1	-1	-1	45	-1	24	43	-1	48	9	7	-1	-1	40	10	-1	-1	-1	38	31	-1	-1	17	4	42	27	3	-1	-1	21	-1	29	-1	6	-1	14	-1	25	32
-1	26	-1	-1	32	-1	-1	-1	16	-1	15	47	18	7	10	-1	21	40	41	20	4	3	-1	-1	-1	-1	11	1	49	-1	-1	48	33	-1	45	-1	-1	-1	6	-1	-1	9	-1	8	-1	-1	43	30	22
17	33	29	15	-1	-1	-1	14	37	12	-1	-1	-1	44	2	-1	1	-1	-1	36	31	-1	-1	-1	16	34	13	-1	-1	-1	9	43	30	3	-1	8	46	-1	5	-1	-1	-1	-1	48	20	-1	-1	21	-1
23	41	-1	-1	4	35	-1	-1	24	-1	-1	-1	27	19	22	-1	26	-1	36	42	34	-1	2	-1	20	40	17	-1	14	12	-1	3	-1	-1	21	-1	39	18	-1	-1	-1	5	7	9	-1	-1	1	45	31
14	-1	22	-1	-1	-1	20	-1	34	-1	25	13	-1	5	-1	-1	19	-1	-1	-1	41	21	23	26	-1	28	18	43	-1	37	35	2	-1	6	32	16	7	3	49	-1	4	10	27	12	30	-1	-1	-1	15
43	12	-1	5	-1	19	34	-1	-1	42	26	-1	46	-1	8	-1	10	-1	4	17	-1	27	45	-1	-1	47	-1	38	-1	-1	16	23	29	30	40	15	-1	6	-1	-1	-1	-1	-1	21	-1	24	36	48	14
3	-1	33	-1	-1	-1	-1	21	-1	1	-1	-1	-1	8	24	30	-1	-1	29	15	25	-1	-1	-1	41	-1	31	-1	-1	-1	19	-1	-1	-1	-1	17	-1	14	27	-1	46	12	-1	4	-1	35	-1	20	38
-1	-1	-1	17	-1	-1	-1	-1	45	-1	-1	-1	37	-1	33	40	20	-1	-1	-1	-1	-1	14	-1	29	-1	-1	-1	-1	44	4	-1	-1	46	8	-1	21	-1	42	36	25	43	5	26	41	-1	22	23	47
-1	-1	38	8	25	36	-1	31	-1	40	4	-1	16	14	6	43	-1	-1	-1	12	21	-1	-1	-1	-1	-1	-1	7	27	10	-1	39	42	-1	-1	11	-1	24	-1	34	-1	26	3	-1	-1	2	-1	19	17
37	-1	-1	26	30	-1	31	11	-1	-1	-1	23	-1	35	39	-1	48	-1	14	47	-1	-1	-1	42	12	-1	-1	4	-1	-1	-1	38	25	-1	49	-1	-1	29	19	-1	-1	45	28	44	-1	-1	-1	-1	46
49 
39 32 8 38
47 21 23 20
13 17 20 6
27 8 20 3
46 17 38 49
27 6 4 4
9 35 24 6
18 1 25 20
14 37 22 24
18 33 42 12
21 39 26 4
21 35 27 15
36 43 26 15
15 47 33 22
40 47 20 44
32 38 18 20
27 7 23 26
19 4 42 19
31 15 42 28
24 33 49 29
17 24 19 19
35 46 38 8
2 20 41 3
30 10 44 2
13 14 43 24
6 37 1 25
7 31 34 19
43 31 7 7
37 24 35 6
3 35 6 20
2 32 6 47
31 43 42 40
45 43 49 36
17 41 33 4
11 4 12 36
6 3 11 14
36 42 9 10
26 17 47 14
17 10 4 19
2 37 17 28
26 12 42 7
6 32 26 6
19 22 43 45
43 4 14 19
39 46 8 47
10 44 12 25
42 29 23 11
18 43 28 20
8 12 28 7
